IBRION=0   # 0-turns on MD
NBLOCK = 4  #steps when temp/energy is reset, need small step                                                                                     
ENCUT= 400
EDIFF = 1E-4 ! 1E-6
ISMEAR= 0;
SIGMA=0.1
PREC=Normal

! ALGO = Fast ! Normal
LREAL=AUTO
NELMIN=4
NELM = 60
NSW = 3000 # steps taken to heat up, 3ps good enough
POTIM=1 # time step, 1fs
ISYM=0

SMASS=-1   ## NVT
TEBEG=0     # starting temp, usually 0K
TEEND=300   # end temp, usaully room temp 300K

IVDW=11
GGA= PE
LWAVE= .FALSE.
LCHARG= .FALSE.

NPAR=4 ! 8
! ALGO= Fast
